64 40 -85 45 -49 -44 0
64 -63 10 -85 45 46 -76 -44 -40 -70 -35 0
-63 5 10 -85 45 -49 -44 -70 0
-31 -85 45 -44 -40 -70 -5 -3 0
58 11 -49 -44 -40 -70 0
-94 10 11 -85 45 -82 -49 -44 -40 -70 0
35 10 -85 45 -49 -44 -70 -5 0
40 10 45 -49 -70 -5 0
-63 10 -85 45 46 -49 -44 -76 -40 -70 -5 -35 0
-63 10 -85 45 -49 -44 -70 0
96 10 44 45 78 -49 -11 -70 -5 0
0
